Route #1: 23 56 43 41 42 64 22 61
Route #2: 5 37 20 60 69 36 47 15 57
Route #3: 10 31 25 55 18 50 32
Route #4: 48 21 28 62 1 63
Route #5: 38 65 66 59 14 35
Route #6: 58 11 53 19 54 13
Route #7: 3 44 24 49 16 33 2
Route #8: 6 51
Route #9: 68 30 29 45 27 52 7 8
Route #10: 17 40 9 39 12 26
Route #11: 4 34 46 67
Cost 888.4137993204276